c read Graph
c width = 310
c time = 463 ms
c width = 24
c time = 760 ms
c width = 23
c time = 1427 ms
c width = 22
c time = 1693 ms
c width = 21
c time = 3302 ms
c width = 21
c time = 4475 ms
s td 259 22 323
b 1 1 2 20
b 2 2 3 20 21
b 3 17 18 37 38
b 4 3 20 21 39
b 5 17 37 38 57
b 6 267 286 287 306
b 7 285 303 304 322
b 8 267 287 306 307
b 9 285 303 321 322
b 10 3 4 5 23
b 11 3 5 22 23 40 58
b 12 5 22 23 40 42 58 60
b 13 5 23 40 42 58 60 78
b 14 5 23 42 58 60 78 96
b 15 5 23 25 42 43 60 78 96
b 16 5 25 42 43 60 62 78 80 96
b 17 5 25 43 60 62 78 80 96 98
b 18 5 25 43 62 78 80 96 98 116
b 19 5 25 43 45 62 63 80 96 98 116
b 20 5 25 45 62 63 80 83 96 98 102 116 118 120 138
b 21 5 25 45 63 65 83 96 98 102 116 118 120 138
b 22 45 63 64 65 83
b 23 5 25 45 65 83 96 98 102 116 118 120 138 158 178 198 218 238 258 276 294 314
b 24 96 98 116 118 138 158 178 198 218 236 238 254 258 272 276 290 294 310 314
b 25 218 236 238 254 256 258 272 276 290 294 310 314
b 26 236 254 256 272 274 276 290 294 310 314
b 27 254 272 274 290 292 294 310 314
b 28 274 292 294 310 312 314
b 29 292 310 311 312
b 30 294 312 313 314
b 31 274 292 293 294 312
b 32 272 290 291 292 310
b 33 254 272 273 274 292
b 34 236 254 255 256 274
b 35 256 274 275 276 294
b 36 238 256 257 258 276
b 37 218 236 237 238 256
b 38 96 98 116 118 138 158 172 178 192 196 198 212 214 218 232 236 254 272 290 310
b 39 172 178 192 196 198 212 214 218 232 236 252 254 272 290 310
b 40 178 196 198 214 216 218 232 236 252 254 272
b 41 196 214 216 232 234 236 252 254 272
b 42 234 252 253 254 272
b 43 216 234 235 236 254
b 44 196 214 215 216 234
b 45 214 232 233 234 252
b 46 198 216 217 218 236
b 47 178 196 197 198 216
b 48 172 192 212 230 232 248 252 272 290 310
b 49 172 192 210 212 230 248
b 50 192 210 211 212 230
b 51 210 229 230 248
b 52 172 191 192 210
b 53 212 230 232 248 252 270 272 290 310
b 54 252 270 271 272 290
b 55 212 230 232 248 250 252 270 290 310
b 56 232 250 251 252 270
b 57 212 230 231 232 250
b 58 230 248 250 270 290 308 310
b 59 230 248 250 270 288 290 308
b 60 230 248 250 268 270 288 308
b 61 250 268 269 270 288
b 62 248 268 288 307 308
b 63 248 267 268 288 307
b 64 267 268 287 288 307
b 65 230 248 249 250 268
b 66 270 288 289 290 308
b 67 290 308 309 310
b 68 96 98 116 118 138 156 158 172 174 178 192 196 212 214 232
b 69 138 156 158 174 176 178 192 196 212 214 232
b 70 156 174 176 192 194 196 212 214 232
b 71 156 174 175 176 194
b 72 174 192 193 194 212
b 73 176 194 195 196 214
b 74 194 212 213 214 232
b 75 158 176 177 178 196
b 76 138 156 157 158 176
b 77 96 98 116 118 136 138 156 172 174 192
b 78 96 116 136 154 156 172 174 192
b 79 154 172 173 174 192
b 80 136 154 155 156 174
b 81 96 116 134 136 154 172
b 82 96 115 116 134
b 83 134 153 154 172
b 84 116 134 135 136 154
b 85 118 136 137 138 156
b 86 98 116 117 118 136
b 87 5 25 45 65 83 102 120 122 138 142 158 162 178 182 198 200 218 238 258 276 294 314
b 88 5 25 45 65 83 102 122 142 158 162 178 182 198 200 218 238 258 276 294 314
b 89 102 120 122 138 142 158 160 162 178 182 198 200 218
b 90 102 120 122 138 140 142 158 160 178
b 91 102 120 121 122 140
b 92 122 140 141 142 160
b 93 140 158 159 160 178
b 94 120 138 139 140 158
b 95 142 160 162 178 180 182 198 200 218
b 96 162 180 181 182 200
b 97 142 160 161 162 180
b 98 160 178 179 180 198
b 99 180 198 199 200 218
b 100 5 25 45 65 83 85 102 105 122 125 142 144 162 182 200 218 238 258 276 294 314
b 101 65 83 85 102 105 122 123 125 142 144 162
b 102 105 123 125 142 143 144 162
b 103 105 123 124 125 143
b 104 65 83 85 102 103 105 122 123
b 105 65 83 84 85 103
b 106 85 103 104 105 123
b 107 5 25 45 65 85 105 125 144 162 182 200 202 218 222 238 240 258 276 294 314
b 108 182 200 202 218 220 222 238 240 258
b 109 202 220 221 222 240
b 110 220 238 239 240 258
b 111 182 200 201 202 220
b 112 200 218 219 220 238
b 113 5 25 45 65 85 105 125 144 162 164 182 202 222 240 258 276 294 314
b 114 144 162 163 164 182
b 115 5 25 45 65 85 105 125 144 164 182 184 202 222 240 258 276 294 314
b 116 164 182 183 184 202
b 117 62 63 80 83 98 100 102 118 120 138
b 118 100 118 119 120 138
b 119 80 98 99 100 118
b 120 62 63 80 82 83 100 102 120
b 121 62 80 81 82 100
b 122 82 100 101 102 120
b 123 25 43 44 45 63
b 124 78 96 97 98 116
b 125 60 78 79 80 98
b 126 42 60 61 62 80
b 127 5 23 24 25 43
b 128 58 77 78 96
b 129 40 58 59 60 78
b 130 22 40 41 42 60
b 131 3 22 39 40 58
b 132 3 21 22 39 40
b 133 5 13 25 33 45 51 65 69 85 87 105 125 144 164 184 202 222 240 258 276 294 314
b 134 13 33 51 69 87 89 105 107 125 144 164 184 202 222 240 258 276 294 314
b 135 13 33 51 69 89 107 108 125 126 144 164 184 202 222 240 258 276 294 314
b 136 13 33 51 69 89 108 126 128 144 148 164 166 184 202 222 240 258 276 294 314
b 137 13 33 51 69 76 89 94 108 112 128 130 148 164 166 184 202 222 240 258 276 294 314
b 138 76 94 112 130 148 166 184 202 222 240 242 258 262 276 280 294 298 314 318
b 139 222 240 242 258 262 276 280 294 298 314 318
b 140 76 94 112 130 148 152 166 170 184 186 188 202 206 222 242 262 280 298 318
b 141 152 166 170 184 186 188 202 206 222 226 242 244 262 280 298 318
b 142 166 184 186 202 204 206 222 226 242 244 262
b 143 166 184 185 186 204
b 144 186 204 206 222 224 226 242 244 262
b 145 204 222 223 224 242
b 146 186 204 205 206 224
b 147 224 242 243 244 262
b 148 206 224 225 226 244
b 149 184 202 203 204 222
b 150 152 170 188 206 226 228 244 246 262 280 298 318
b 151 226 228 244 246 262 280 298 300 318
b 152 280 298 299 300 318
b 153 226 228 244 246 262 280 282 300 318
b 154 226 228 244 246 262 264 282 300 318
b 155 226 244 245 246 264
b 156 228 246 264 282 300 318 320
b 157 300 318 319 320
b 158 228 246 264 266 282 300 320
b 159 228 246 247 266
b 160 246 264 266 282 300 302 320
b 161 282 300 301 302 320
b 162 246 264 266 282 284 302 320
b 163 246 264 265 266 284
b 164 266 284 302 320 321
b 165 266 284 285 302 321
b 166 284 285 302 303 321
b 167 264 282 283 284 302
b 168 244 262 263 264 282
b 169 262 280 281 282 300
b 170 152 170 188 206 208 226 228 246
b 171 152 170 188 190 208 228
b 172 190 208 209 228
b 173 170 188 189 190 208
b 174 152 170 171 190
b 175 188 206 207 208 226
b 176 208 226 227 228 246
b 177 76 94 112 130 148 152 166 168 170 186 188 206
b 178 148 166 167 168 186
b 179 76 94 112 130 148 150 152 168 170 188
b 180 150 168 169 170 188
b 181 130 148 149 150 168
b 182 76 94 112 130 132 150 152 170
b 183 76 94 112 114 132 152
b 184 76 94 95 114
b 185 114 132 133 152
b 186 94 112 113 114 132
b 187 132 150 151 152 170
b 188 112 130 131 132 150
b 189 168 186 187 188 206
b 190 222 240 242 258 262 276 278 280 294 298 314 318
b 191 258 276 278 294 296 298 314 318
b 192 276 294 295 296 314
b 193 278 296 298 314 316 318
b 194 296 314 315 316
b 195 298 316 317 318
b 196 278 296 297 298 316
b 197 258 276 277 278 296
b 198 222 240 242 258 260 262 278 280 298
b 199 260 278 279 280 298
b 200 222 240 241 242 260
b 201 242 260 261 262 280
b 202 240 258 259 260 278
b 203 5 9 13 25 29 33 45 49 51 65 69 85 87 105
b 204 5 9 25 29 45 47 49 65 69 85 87 105
b 205 5 9 25 27 29 45 47 65
b 206 9 27 28 29 47
b 207 5 7 9 25 27 45
b 208 7 8 9 27
b 209 5 6 7 25
b 210 7 25 26 27 45
b 211 27 45 46 47 65
b 212 29 47 49 65 67 69 85 87 105
b 213 49 67 68 69 87
b 214 29 47 48 49 67
b 215 47 65 66 67 85
b 216 67 85 86 87 105
b 217 9 13 29 31 33 49 51 69
b 218 13 31 32 33 51
b 219 31 49 50 51 69
b 220 9 11 13 29 31 49
b 221 9 10 11 29
b 222 11 12 13 31
b 223 11 29 30 31 49
b 224 69 87 88 89 107
b 225 87 105 106 107 125
b 226 13 33 51 69 71 76 89 94 108 112 128 130 148
b 227 51 69 70 71 89
b 228 13 33 51 71 72 76 89 92 94 108 112 128 130 148
b 229 13 33 51 53 71 72 76 92 94 112
b 230 33 51 52 53 71
b 231 13 33 53 72 74 76 92 94 112
b 232 74 92 93 94 112
b 233 13 33 53 54 72 74 76 92 94
b 234 13 17 33 36 53 54 74 76 94
b 235 13 17 33 35 36 53 54
b 236 13 15 17 33 35 53
b 237 13 14 15 33
b 238 15 33 34 35 53
b 239 15 16 17 35
b 240 17 36 54 56 74 76 94
b 241 56 74 75 76 94
b 242 17 36 56 57 76
b 243 17 36 37 56 57
b 244 36 54 55 56 74
b 245 54 72 73 74 92
b 246 71 72 89 92 108 110 112 128 130 148
b 247 110 128 129 130 148
b 248 71 72 89 90 92 108 110 128
b 249 72 90 91 92 110
b 250 90 108 109 110 128
b 251 92 110 111 112 130
b 252 108 126 128 144 146 148 164 166 184
b 253 126 144 145 146 164
b 254 146 164 165 166 184
b 255 128 146 147 148 166
b 256 108 126 127 128 146
b 257 304 322 323
b 258 286 305 306
b 259 18 19 38
1 2
2 4
3 259
3 5
4 132
5 243
6 258
6 8
7 257
7 9
8 64
9 166
10 11
11 131
11 12
12 130
12 13
13 129
13 14
14 128
14 15
15 127
15 16
16 126
16 17
17 125
17 18
18 124
18 19
19 123
19 20
20 117
20 21
21 23
21 22
23 87
23 24
24 25
24 38
25 37
25 36
25 26
26 34
26 35
26 27
27 32
27 33
27 28
28 29
28 30
28 31
38 39
38 68
39 48
39 40
40 47
40 46
40 41
41 45
41 44
41 42
41 43
48 49
48 53
49 52
49 51
49 50
53 54
53 55
55 57
55 56
55 58
58 67
58 59
59 66
59 60
60 62
60 65
60 61
62 63
63 64
68 77
68 69
69 76
69 75
69 70
70 72
70 71
70 74
70 73
77 86
77 85
77 78
78 79
78 80
78 81
81 82
81 83
81 84
87 100
87 89
87 88
89 90
89 95
90 94
90 91
90 93
90 92
95 98
95 97
95 99
95 96
100 107
100 101
101 102
101 104
102 103
104 105
104 106
107 113
107 108
108 109
108 110
108 111
108 112
113 115
113 114
115 133
115 116
117 119
117 118
117 120
120 121
120 122
131 132
133 203
133 134
134 225
134 224
134 135
135 136
136 252
136 137
137 138
137 226
138 190
138 140
138 139
140 141
140 177
141 150
141 142
142 143
142 144
142 149
144 148
144 146
144 145
144 147
150 170
150 151
151 152
151 153
153 169
153 154
154 155
154 168
154 156
156 157
156 158
158 159
158 160
160 161
160 162
162 164
162 163
162 167
164 165
165 166
170 176
170 175
170 171
171 174
171 172
171 173
177 189
177 178
177 179
179 180
179 181
179 182
182 187
182 188
182 183
183 184
183 185
183 186
190 191
190 198
191 193
191 197
191 192
193 196
193 195
193 194
198 199
198 200
198 201
198 202
203 204
203 217
204 205
204 212
205 206
205 211
205 207
207 209
207 208
207 210
212 214
212 215
212 213
212 216
217 218
217 219
217 220
220 221
220 222
220 223
226 228
226 227
228 229
228 246
229 230
229 231
231 232
231 233
233 245
233 234
234 235
234 240
235 236
236 237
236 239
236 238
240 242
240 241
240 244
242 243
246 251
246 247
246 248
248 249
248 250
252 256
252 254
252 255
252 253
